(declare-fun v10 () (_ BitVec 1))
(declare-fun bvlambda_3_ () (_ BitVec 1))
(declare-fun bvlambda_17_ () (_ BitVec 2))
(declare-fun bvlambda_18_ () (_ BitVec 1))
(declare-fun bvlambda_19_ () (_ BitVec 1))
(declare-fun bvlambda_20_ () (_ BitVec 2))
(declare-fun bvlambda_25_ () (_ BitVec 1))
(declare-fun bvlambda_26_ () (_ BitVec 1))
(declare-fun a75 () (Array (_ BitVec 1) (_ BitVec 6)))
(assert
(let (($e4 (_ bv3032 13)))
(let (($e5 (_ bv0 5)))
(let (($e6 (_ bv0 8)))
(let (($e7 (_ bv0 11)))
(let (($e199                $e6               ))
(let (($e200         $e199              ))
(let (($e201                           $e200       ))
(let (($e214        a75                           ))
(let (($e245 ((_ extract 6 1) $e201)))
(let (($e246                          $e245       ))
(let (($e247 (concat bvlambda_17_ bvlambda_18_)))
(let (($e248 (concat $e247 bvlambda_19_)))
(let (($e249 (concat $e248 bvlambda_20_)))
(let (($e250        (bvnot bvlambda_3_)                      ))
(let (($e253                      (bvnot $e250) ))
(let (($e254 (store $e214 $e253 $e249)))
(let (($e266                             #b0 ))
(let (($e268                      $e266 ))
(let (($e270 (concat $e5 (bvnot $e268))))
(let (($e271                    $e270       ))
(let (($e272 (concat $e7 bvlambda_25_)))
(let (($e273 (concat $e272 bvlambda_26_)))
(let (($e274      (bvult $e273        $e4 )         ))
(let (($e275 (store $e254 v10 $e246)))
(let (($e276 (select $e275 (bvnot $e274))))
(let (($e277      (= $e276 $e271)         ))
             (bvand v10 $e277)
                                                                                                                                                                                                                                                                                                                                                                                                                                                                                                                                                                                                                                                                                                                                                                                                                                                                                                                                                                                                                                                                             )))))))) ) )           ))  ))))))                              )            )))                                                                                                                                                    ))))   )
